100 100 100
50
44 100 79
51 100 65
1 82 88
39 49 17
89 79 24
35 97 92
25 93 67
25 88 84
50 98 73
12 98 81
41 67 78
46 90 90
80 67 64
8 67 68
94 88 14
17 79 71
83 72 5
31 85 81
19 78 87
20 89 98
83 95 15
39 66 74
8 97 78
8 91 70
36 87 72
11 82 81
49 22 23
84 59 67
30 92 84
94 59 67
16 75 85
9 100 81
98 73 25
43 92 79
70 33 93
43 84 73
45 83 82
34 99 82
98 73 60
12 72 93
97 86 44
73 15 68
23 39 34
42 84 87
6 88 86
74 54 53
39 90 71
50 94 89
23 68 92
10 83 77
